# Objective value = 4
y1 0
y2 0
y3 0
y4 1
y5 0
y6 0
y7 0
y8 0
y9 0
y10 0
y11 0
y12 1
y13 0
y14 0
y15 0
y16 0
y17 0
y18 0
y19 0
y20 0
y21 0
y22 1
y23 0
y24 0
y25 1
y26 0
y27 0
y28 0
y29 0
y30 0
y31 0
y32 0
y33 0
y34 0
y35 0
y36 0
y37 0
x1_1 0
x1_2 0
x1_3 0
x1_4 0
x1_5 0
x1_6 0
x1_7 0
x1_8 0
x1_9 0
x1_10 0
x1_11 0
x1_12 1
x1_13 0
x1_14 0
x1_15 0
x1_16 0
x1_17 0
x1_18 0
x1_19 0
x1_20 0
x1_21 0
x1_22 0
x1_23 0
x1_24 0
x1_25 0
x1_26 0
x1_27 0
x1_28 0
x1_29 0
x1_30 0
x1_31 0
x1_32 0
x1_33 0
x1_34 0
x1_35 0
x1_36 0
x1_37 0
x2_1 0
x2_2 0
x2_3 0
x2_4 0
x2_5 0
x2_6 0
x2_7 0
x2_8 0
x2_9 0
x2_10 0
x2_11 0
x2_12 0
x2_13 0
x2_14 0
x2_15 0
x2_16 0
x2_17 0
x2_18 0
x2_19 0
x2_20 0
x2_21 0
x2_22 0
x2_23 0
x2_24 0
x2_25 1
x2_26 0
x2_27 0
x2_28 0
x2_29 0
x2_30 0
x2_31 0
x2_32 0
x2_33 0
x2_34 0
x2_35 0
x2_36 0
x2_37 0
x3_1 0
x3_2 0
x3_3 0
x3_4 0
x3_5 0
x3_6 0
x3_7 0
x3_8 0
x3_9 0
x3_10 0
x3_11 0
x3_12 1
x3_13 0
x3_14 0
x3_15 0
x3_16 0
x3_17 0
x3_18 0
x3_19 0
x3_20 0
x3_21 0
x3_22 0
x3_23 0
x3_24 0
x3_25 0
x3_26 0
x3_27 0
x3_28 0
x3_29 0
x3_30 0
x3_31 0
x3_32 0
x3_33 0
x3_34 0
x3_35 0
x3_36 0
x3_37 0
x4_1 0
x4_2 0
x4_3 0
x4_4 0
x4_5 0
x4_6 0
x4_7 0
x4_8 0
x4_9 0
x4_10 0
x4_11 0
x4_12 0
x4_13 0
x4_14 0
x4_15 0
x4_16 0
x4_17 0
x4_18 0
x4_19 0
x4_20 0
x4_21 0
x4_22 0
x4_23 0
x4_24 0
x4_25 1
x4_26 0
x4_27 0
x4_28 0
x4_29 0
x4_30 0
x4_31 0
x4_32 0
x4_33 0
x4_34 0
x4_35 0
x4_36 0
x4_37 0
x5_1 0
x5_2 0
x5_3 0
x5_4 0
x5_5 0
x5_6 0
x5_7 0
x5_8 0
x5_9 0
x5_10 0
x5_11 0
x5_12 1
x5_13 0
x5_14 0
x5_15 0
x5_16 0
x5_17 0
x5_18 0
x5_19 0
x5_20 0
x5_21 0
x5_22 0
x5_23 0
x5_24 0
x5_25 0
x5_26 0
x5_27 0
x5_28 0
x5_29 0
x5_30 0
x5_31 0
x5_32 0
x5_33 0
x5_34 0
x5_35 0
x5_36 0
x5_37 0
x6_1 0
x6_2 0
x6_3 0
x6_4 1
x6_5 0
x6_6 0
x6_7 0
x6_8 0
x6_9 0
x6_10 0
x6_11 0
x6_12 0
x6_13 0
x6_14 0
x6_15 0
x6_16 0
x6_17 0
x6_18 0
x6_19 0
x6_20 0
x6_21 0
x6_22 0
x6_23 0
x6_24 0
x6_25 0
x6_26 0
x6_27 0
x6_28 0
x6_29 0
x6_30 0
x6_31 0
x6_32 0
x6_33 0
x6_34 0
x6_35 0
x6_36 0
x6_37 0
x7_1 0
x7_2 0
x7_3 0
x7_4 0
x7_5 0
x7_6 0
x7_7 0
x7_8 0
x7_9 0
x7_10 0
x7_11 0
x7_12 0
x7_13 0
x7_14 0
x7_15 0
x7_16 0
x7_17 0
x7_18 0
x7_19 0
x7_20 0
x7_21 0
x7_22 0
x7_23 0
x7_24 0
x7_25 1
x7_26 0
x7_27 0
x7_28 0
x7_29 0
x7_30 0
x7_31 0
x7_32 0
x7_33 0
x7_34 0
x7_35 0
x7_36 0
x7_37 0
x8_1 0
x8_2 0
x8_3 0
x8_4 0
x8_5 0
x8_6 0
x8_7 0
x8_8 0
x8_9 0
x8_10 0
x8_11 0
x8_12 0
x8_13 0
x8_14 0
x8_15 0
x8_16 0
x8_17 0
x8_18 0
x8_19 0
x8_20 0
x8_21 0
x8_22 0
x8_23 0
x8_24 0
x8_25 1
x8_26 0
x8_27 0
x8_28 0
x8_29 0
x8_30 0
x8_31 0
x8_32 0
x8_33 0
x8_34 0
x8_35 0
x8_36 0
x8_37 0
x9_1 0
x9_2 0
x9_3 0
x9_4 0
x9_5 0
x9_6 0
x9_7 0
x9_8 0
x9_9 0
x9_10 0
x9_11 0
x9_12 1
x9_13 0
x9_14 0
x9_15 0
x9_16 0
x9_17 0
x9_18 0
x9_19 0
x9_20 0
x9_21 0
x9_22 0
x9_23 0
x9_24 0
x9_25 0
x9_26 0
x9_27 0
x9_28 0
x9_29 0
x9_30 0
x9_31 0
x9_32 0
x9_33 0
x9_34 0
x9_35 0
x9_36 0
x9_37 0
x10_1 0
x10_2 0
x10_3 0
x10_4 0
x10_5 0
x10_6 0
x10_7 0
x10_8 0
x10_9 0
x10_10 0
x10_11 0
x10_12 1
x10_13 0
x10_14 0
x10_15 0
x10_16 0
x10_17 0
x10_18 0
x10_19 0
x10_20 0
x10_21 0
x10_22 0
x10_23 0
x10_24 0
x10_25 0
x10_26 0
x10_27 0
x10_28 0
x10_29 0
x10_30 0
x10_31 0
x10_32 0
x10_33 0
x10_34 0
x10_35 0
x10_36 0
x10_37 0
x11_1 0
x11_2 0
x11_3 0
x11_4 0
x11_5 0
x11_6 0
x11_7 0
x11_8 0
x11_9 0
x11_10 0
x11_11 0
x11_12 0
x11_13 0
x11_14 0
x11_15 0
x11_16 0
x11_17 0
x11_18 0
x11_19 0
x11_20 0
x11_21 0
x11_22 0
x11_23 0
x11_24 0
x11_25 1
x11_26 0
x11_27 0
x11_28 0
x11_29 0
x11_30 0
x11_31 0
x11_32 0
x11_33 0
x11_34 0
x11_35 0
x11_36 0
x11_37 0
x12_1 0
x12_2 0
x12_3 0
x12_4 0
x12_5 0
x12_6 0
x12_7 0
x12_8 0
x12_9 0
x12_10 0
x12_11 0
x12_12 1
x12_13 0
x12_14 0
x12_15 0
x12_16 0
x12_17 0
x12_18 0
x12_19 0
x12_20 0
x12_21 0
x12_22 0
x12_23 0
x12_24 0
x12_25 0
x12_26 0
x12_27 0
x12_28 0
x12_29 0
x12_30 0
x12_31 0
x12_32 0
x12_33 0
x12_34 0
x12_35 0
x12_36 0
x12_37 0
x13_1 0
x13_2 0
x13_3 0
x13_4 0
x13_5 0
x13_6 0
x13_7 0
x13_8 0
x13_9 0
x13_10 0
x13_11 0
x13_12 0
x13_13 0
x13_14 0
x13_15 0
x13_16 0
x13_17 0
x13_18 0
x13_19 0
x13_20 0
x13_21 0
x13_22 0
x13_23 0
x13_24 0
x13_25 1
x13_26 0
x13_27 0
x13_28 0
x13_29 0
x13_30 0
x13_31 0
x13_32 0
x13_33 0
x13_34 0
x13_35 0
x13_36 0
x13_37 0
x14_1 0
x14_2 0
x14_3 0
x14_4 0
x14_5 0
x14_6 0
x14_7 0
x14_8 0
x14_9 0
x14_10 0
x14_11 0
x14_12 1
x14_13 0
x14_14 0
x14_15 0
x14_16 0
x14_17 0
x14_18 0
x14_19 0
x14_20 0
x14_21 0
x14_22 0
x14_23 0
x14_24 0
x14_25 0
x14_26 0
x14_27 0
x14_28 0
x14_29 0
x14_30 0
x14_31 0
x14_32 0
x14_33 0
x14_34 0
x14_35 0
x14_36 0
x14_37 0
x15_1 0
x15_2 0
x15_3 0
x15_4 1
x15_5 0
x15_6 0
x15_7 0
x15_8 0
x15_9 0
x15_10 0
x15_11 0
x15_12 0
x15_13 0
x15_14 0
x15_15 0
x15_16 0
x15_17 0
x15_18 0
x15_19 0
x15_20 0
x15_21 0
x15_22 0
x15_23 0
x15_24 0
x15_25 0
x15_26 0
x15_27 0
x15_28 0
x15_29 0
x15_30 0
x15_31 0
x15_32 0
x15_33 0
x15_34 0
x15_35 0
x15_36 0
x15_37 0
x16_1 0
x16_2 0
x16_3 0
x16_4 0
x16_5 0
x16_6 0
x16_7 0
x16_8 0
x16_9 0
x16_10 0
x16_11 0
x16_12 0
x16_13 0
x16_14 0
x16_15 0
x16_16 0
x16_17 0
x16_18 0
x16_19 0
x16_20 0
x16_21 0
x16_22 0
x16_23 0
x16_24 0
x16_25 1
x16_26 0
x16_27 0
x16_28 0
x16_29 0
x16_30 0
x16_31 0
x16_32 0
x16_33 0
x16_34 0
x16_35 0
x16_36 0
x16_37 0
x17_1 0
x17_2 0
x17_3 0
x17_4 0
x17_5 0
x17_6 0
x17_7 0
x17_8 0
x17_9 0
x17_10 0
x17_11 0
x17_12 0
x17_13 0
x17_14 0
x17_15 0
x17_16 0
x17_17 0
x17_18 0
x17_19 0
x17_20 0
x17_21 0
x17_22 0
x17_23 0
x17_24 0
x17_25 1
x17_26 0
x17_27 0
x17_28 0
x17_29 0
x17_30 0
x17_31 0
x17_32 0
x17_33 0
x17_34 0
x17_35 0
x17_36 0
x17_37 0
x18_1 0
x18_2 0
x18_3 0
x18_4 1
x18_5 0
x18_6 0
x18_7 0
x18_8 0
x18_9 0
x18_10 0
x18_11 0
x18_12 0
x18_13 0
x18_14 0
x18_15 0
x18_16 0
x18_17 0
x18_18 0
x18_19 0
x18_20 0
x18_21 0
x18_22 0
x18_23 0
x18_24 0
x18_25 0
x18_26 0
x18_27 0
x18_28 0
x18_29 0
x18_30 0
x18_31 0
x18_32 0
x18_33 0
x18_34 0
x18_35 0
x18_36 0
x18_37 0
x19_1 0
x19_2 0
x19_3 0
x19_4 0
x19_5 0
x19_6 0
x19_7 0
x19_8 0
x19_9 0
x19_10 0
x19_11 0
x19_12 1
x19_13 0
x19_14 0
x19_15 0
x19_16 0
x19_17 0
x19_18 0
x19_19 0
x19_20 0
x19_21 0
x19_22 0
x19_23 0
x19_24 0
x19_25 0
x19_26 0
x19_27 0
x19_28 0
x19_29 0
x19_30 0
x19_31 0
x19_32 0
x19_33 0
x19_34 0
x19_35 0
x19_36 0
x19_37 0
x20_1 0
x20_2 0
x20_3 0
x20_4 0
x20_5 0
x20_6 0
x20_7 0
x20_8 0
x20_9 0
x20_10 0
x20_11 0
x20_12 0
x20_13 0
x20_14 0
x20_15 0
x20_16 0
x20_17 0
x20_18 0
x20_19 0
x20_20 0
x20_21 0
x20_22 0
x20_23 0
x20_24 0
x20_25 1
x20_26 0
x20_27 0
x20_28 0
x20_29 0
x20_30 0
x20_31 0
x20_32 0
x20_33 0
x20_34 0
x20_35 0
x20_36 0
x20_37 0
x21_1 0
x21_2 0
x21_3 0
x21_4 0
x21_5 0
x21_6 0
x21_7 0
x21_8 0
x21_9 0
x21_10 0
x21_11 0
x21_12 1
x21_13 0
x21_14 0
x21_15 0
x21_16 0
x21_17 0
x21_18 0
x21_19 0
x21_20 0
x21_21 0
x21_22 0
x21_23 0
x21_24 0
x21_25 0
x21_26 0
x21_27 0
x21_28 0
x21_29 0
x21_30 0
x21_31 0
x21_32 0
x21_33 0
x21_34 0
x21_35 0
x21_36 0
x21_37 0
x22_1 0
x22_2 0
x22_3 0
x22_4 0
x22_5 0
x22_6 0
x22_7 0
x22_8 0
x22_9 0
x22_10 0
x22_11 0
x22_12 0
x22_13 0
x22_14 0
x22_15 0
x22_16 0
x22_17 0
x22_18 0
x22_19 0
x22_20 0
x22_21 0
x22_22 0
x22_23 0
x22_24 0
x22_25 1
x22_26 0
x22_27 0
x22_28 0
x22_29 0
x22_30 0
x22_31 0
x22_32 0
x22_33 0
x22_34 0
x22_35 0
x22_36 0
x22_37 0
x23_1 0
x23_2 0
x23_3 0
x23_4 0
x23_5 0
x23_6 0
x23_7 0
x23_8 0
x23_9 0
x23_10 0
x23_11 0
x23_12 1
x23_13 0
x23_14 0
x23_15 0
x23_16 0
x23_17 0
x23_18 0
x23_19 0
x23_20 0
x23_21 0
x23_22 0
x23_23 0
x23_24 0
x23_25 0
x23_26 0
x23_27 0
x23_28 0
x23_29 0
x23_30 0
x23_31 0
x23_32 0
x23_33 0
x23_34 0
x23_35 0
x23_36 0
x23_37 0
x24_1 0
x24_2 0
x24_3 0
x24_4 0
x24_5 0
x24_6 0
x24_7 0
x24_8 0
x24_9 0
x24_10 0
x24_11 0
x24_12 0
x24_13 0
x24_14 0
x24_15 0
x24_16 0
x24_17 0
x24_18 0
x24_19 0
x24_20 0
x24_21 0
x24_22 1
x24_23 0
x24_24 0
x24_25 0
x24_26 0
x24_27 0
x24_28 0
x24_29 0
x24_30 0
x24_31 0
x24_32 0
x24_33 0
x24_34 0
x24_35 0
x24_36 0
x24_37 0
x25_1 0
x25_2 0
x25_3 0
x25_4 0
x25_5 0
x25_6 0
x25_7 0
x25_8 0
x25_9 0
x25_10 0
x25_11 0
x25_12 1
x25_13 0
x25_14 0
x25_15 0
x25_16 0
x25_17 0
x25_18 0
x25_19 0
x25_20 0
x25_21 0
x25_22 0
x25_23 0
x25_24 0
x25_25 0
x25_26 0
x25_27 0
x25_28 0
x25_29 0
x25_30 0
x25_31 0
x25_32 0
x25_33 0
x25_34 0
x25_35 0
x25_36 0
x25_37 0
x26_1 0
x26_2 0
x26_3 0
x26_4 0
x26_5 0
x26_6 0
x26_7 0
x26_8 0
x26_9 0
x26_10 0
x26_11 0
x26_12 0
x26_13 0
x26_14 0
x26_15 0
x26_16 0
x26_17 0
x26_18 0
x26_19 0
x26_20 0
x26_21 0
x26_22 0
x26_23 0
x26_24 0
x26_25 1
x26_26 0
x26_27 0
x26_28 0
x26_29 0
x26_30 0
x26_31 0
x26_32 0
x26_33 0
x26_34 0
x26_35 0
x26_36 0
x26_37 0
x27_1 0
x27_2 0
x27_3 0
x27_4 0
x27_5 0
x27_6 0
x27_7 0
x27_8 0
x27_9 0
x27_10 0
x27_11 0
x27_12 1
x27_13 0
x27_14 0
x27_15 0
x27_16 0
x27_17 0
x27_18 0
x27_19 0
x27_20 0
x27_21 0
x27_22 0
x27_23 0
x27_24 0
x27_25 0
x27_26 0
x27_27 0
x27_28 0
x27_29 0
x27_30 0
x27_31 0
x27_32 0
x27_33 0
x27_34 0
x27_35 0
x27_36 0
x27_37 0
x28_1 0
x28_2 0
x28_3 0
x28_4 1
x28_5 0
x28_6 0
x28_7 0
x28_8 0
x28_9 0
x28_10 0
x28_11 0
x28_12 0
x28_13 0
x28_14 0
x28_15 0
x28_16 0
x28_17 0
x28_18 0
x28_19 0
x28_20 0
x28_21 0
x28_22 0
x28_23 0
x28_24 0
x28_25 0
x28_26 0
x28_27 0
x28_28 0
x28_29 0
x28_30 0
x28_31 0
x28_32 0
x28_33 0
x28_34 0
x28_35 0
x28_36 0
x28_37 0
x29_1 0
x29_2 0
x29_3 0
x29_4 0
x29_5 0
x29_6 0
x29_7 0
x29_8 0
x29_9 0
x29_10 0
x29_11 0
x29_12 0
x29_13 0
x29_14 0
x29_15 0
x29_16 0
x29_17 0
x29_18 0
x29_19 0
x29_20 0
x29_21 0
x29_22 0
x29_23 0
x29_24 0
x29_25 1
x29_26 0
x29_27 0
x29_28 0
x29_29 0
x29_30 0
x29_31 0
x29_32 0
x29_33 0
x29_34 0
x29_35 0
x29_36 0
x29_37 0
x30_1 0
x30_2 0
x30_3 0
x30_4 1
x30_5 0
x30_6 0
x30_7 0
x30_8 0
x30_9 0
x30_10 0
x30_11 0
x30_12 0
x30_13 0
x30_14 0
x30_15 0
x30_16 0
x30_17 0
x30_18 0
x30_19 0
x30_20 0
x30_21 0
x30_22 0
x30_23 0
x30_24 0
x30_25 0
x30_26 0
x30_27 0
x30_28 0
x30_29 0
x30_30 0
x30_31 0
x30_32 0
x30_33 0
x30_34 0
x30_35 0
x30_36 0
x30_37 0
x31_1 0
x31_2 0
x31_3 0
x31_4 0
x31_5 0
x31_6 0
x31_7 0
x31_8 0
x31_9 0
x31_10 0
x31_11 0
x31_12 0
x31_13 0
x31_14 0
x31_15 0
x31_16 0
x31_17 0
x31_18 0
x31_19 0
x31_20 0
x31_21 0
x31_22 0
x31_23 0
x31_24 0
x31_25 1
x31_26 0
x31_27 0
x31_28 0
x31_29 0
x31_30 0
x31_31 0
x31_32 0
x31_33 0
x31_34 0
x31_35 0
x31_36 0
x31_37 0
x32_1 0
x32_2 0
x32_3 0
x32_4 1
x32_5 0
x32_6 0
x32_7 0
x32_8 0
x32_9 0
x32_10 0
x32_11 0
x32_12 0
x32_13 0
x32_14 0
x32_15 0
x32_16 0
x32_17 0
x32_18 0
x32_19 0
x32_20 0
x32_21 0
x32_22 0
x32_23 0
x32_24 0
x32_25 0
x32_26 0
x32_27 0
x32_28 0
x32_29 0
x32_30 0
x32_31 0
x32_32 0
x32_33 0
x32_34 0
x32_35 0
x32_36 0
x32_37 0
x33_1 0
x33_2 0
x33_3 0
x33_4 0
x33_5 0
x33_6 0
x33_7 0
x33_8 0
x33_9 0
x33_10 0
x33_11 0
x33_12 0
x33_13 0
x33_14 0
x33_15 0
x33_16 0
x33_17 0
x33_18 0
x33_19 0
x33_20 0
x33_21 0
x33_22 0
x33_23 0
x33_24 0
x33_25 1
x33_26 0
x33_27 0
x33_28 0
x33_29 0
x33_30 0
x33_31 0
x33_32 0
x33_33 0
x33_34 0
x33_35 0
x33_36 0
x33_37 0
x34_1 0
x34_2 0
x34_3 0
x34_4 0
x34_5 0
x34_6 0
x34_7 0
x34_8 0
x34_9 0
x34_10 0
x34_11 0
x34_12 0
x34_13 0
x34_14 0
x34_15 0
x34_16 0
x34_17 0
x34_18 0
x34_19 0
x34_20 0
x34_21 0
x34_22 0
x34_23 0
x34_24 0
x34_25 1
x34_26 0
x34_27 0
x34_28 0
x34_29 0
x34_30 0
x34_31 0
x34_32 0
x34_33 0
x34_34 0
x34_35 0
x34_36 0
x34_37 0
x35_1 0
x35_2 0
x35_3 0
x35_4 0
x35_5 0
x35_6 0
x35_7 0
x35_8 0
x35_9 0
x35_10 0
x35_11 0
x35_12 0
x35_13 0
x35_14 0
x35_15 0
x35_16 0
x35_17 0
x35_18 0
x35_19 0
x35_20 0
x35_21 0
x35_22 0
x35_23 0
x35_24 0
x35_25 1
x35_26 0
x35_27 0
x35_28 0
x35_29 0
x35_30 0
x35_31 0
x35_32 0
x35_33 0
x35_34 0
x35_35 0
x35_36 0
x35_37 0
x36_1 0
x36_2 0
x36_3 0
x36_4 1
x36_5 0
x36_6 0
x36_7 0
x36_8 0
x36_9 0
x36_10 0
x36_11 0
x36_12 0
x36_13 0
x36_14 0
x36_15 0
x36_16 0
x36_17 0
x36_18 0
x36_19 0
x36_20 0
x36_21 0
x36_22 0
x36_23 0
x36_24 0
x36_25 0
x36_26 0
x36_27 0
x36_28 0
x36_29 0
x36_30 0
x36_31 0
x36_32 0
x36_33 0
x36_34 0
x36_35 0
x36_36 0
x36_37 0
x37_1 0
x37_2 0
x37_3 0
x37_4 0
x37_5 0
x37_6 0
x37_7 0
x37_8 0
x37_9 0
x37_10 0
x37_11 0
x37_12 1
x37_13 0
x37_14 0
x37_15 0
x37_16 0
x37_17 0
x37_18 0
x37_19 0
x37_20 0
x37_21 0
x37_22 0
x37_23 0
x37_24 0
x37_25 0
x37_26 0
x37_27 0
x37_28 0
x37_29 0
x37_30 0
x37_31 0
x37_32 0
x37_33 0
x37_34 0
x37_35 0
x37_36 0
x37_37 0
